
******************************************************************************
This program contains Ipopt, a library for large-scale nonlinear optimization.
 Ipopt is released as open source code under the Eclipse Public License (EPL).
         For more information visit http://projects.coin-or.org/Ipopt
******************************************************************************

This is Ipopt version 3.13.2, running with linear solver mumps.
NOTE: Other linear solvers might be more efficient (see Ipopt documentation).

Number of nonzeros in equality constraint Jacobian...:        0
Number of nonzeros in inequality constraint Jacobian.:     8450
Number of nonzeros in Lagrangian Hessian.............:        0

Total number of variables............................:     4225
                     variables with only lower bounds:        0
                variables with lower and upper bounds:     4225
                     variables with only upper bounds:        0
Total number of equality constraints.................:        0
Total number of inequality constraints...............:        2
        inequality constraints with only lower bounds:        2
   inequality constraints with lower and upper bounds:        0
        inequality constraints with only upper bounds:        0

iter    objective    inf_pr   inf_du lg(mu)  ||d||  lg(rg) alpha_du alpha_pr  ls
   0  1.8663436e-01 6.22e+00 2.89e-01  -1.0 0.00e+00    -  0.00e+00 0.00e+00   0
   1  1.8690332e-01 6.20e+00 8.87e+01  -1.0 2.57e+00    -  3.36e-01 3.85e-03f  1
   2  1.9794244e-01 6.06e+00 1.61e+02  -1.0 2.39e+00    -  1.75e-01 2.26e-02f  1
   3  2.0829637e-01 5.97e+00 1.98e+03  -1.0 1.86e+00    -  1.52e-01 1.49e-02f  1
   4  1.0651812e+00 3.25e+00 2.42e+02  -1.0 1.70e+00    -  2.87e-01 5.42e-01f  1
   5  3.2559132e+00 7.20e-01 6.78e+01  -1.0 4.44e-01    -  7.95e-01 1.00e+00f  1
   6  5.0992713e+00 7.32e-01 6.91e+02  -1.0 5.94e-01    -  4.49e-01 6.54e-01f  1
   7  4.5922518e+00 3.16e-01 1.10e+02  -1.0 2.62e-01    -  1.00e+00 8.78e-01h  1
   8  1.1704398e+01 7.27e-02 2.08e+01  -1.0 2.74e-01    -  1.00e+00 8.52e-01h  1
   9  7.8201955e+00 3.16e-02 9.76e+01  -1.0 2.58e-01    -  2.29e-01 6.17e-01h  1
iter    objective    inf_pr   inf_du lg(mu)  ||d||  lg(rg) alpha_du alpha_pr  ls
  10  8.4964500e+00 1.09e-03 2.11e+00  -1.0 2.07e-02    -  1.00e+00 1.00e+00h  1
  11  9.6448277e+00 8.56e-05 3.07e+00  -1.0 1.46e-01    -  1.00e+00 1.00e+00f  1
  12  9.2707998e+00 0.00e+00 9.63e-01  -1.0 8.05e-02    -  1.00e+00 1.00e+00f  1
  13  7.9510826e+00 1.31e-04 1.26e+02  -1.7 7.24e-02    -  7.16e-01 1.00e+00f  1
  14  7.2043264e+00 0.00e+00 5.70e-01  -1.7 6.30e-02    -  1.00e+00 1.00e+00f  1
  15  6.7513821e+00 0.00e+00 2.08e-01  -1.7 5.73e-02    -  1.00e+00 1.00e+00f  1
  16  6.5705312e+00 0.00e+00 1.83e-01  -1.7 3.06e-02    -  1.00e+00 1.00e+00f  1
  17  5.3772429e+00 1.95e-03 5.25e+01  -2.5 2.37e-01    -  5.26e-01 1.00e+00f  1
  18  4.9078857e+00 1.06e-03 1.36e+01  -2.5 1.81e-01    -  7.46e-01 1.00e+00f  1
  19  4.3324252e+00 2.70e-03 5.91e+00  -2.5 1.28e-01    -  4.90e-01 1.00e+00f  1
iter    objective    inf_pr   inf_du lg(mu)  ||d||  lg(rg) alpha_du alpha_pr  ls
  20  4.3647825e+00 6.84e-04 1.20e-01  -2.5 4.67e-02    -  1.00e+00 1.00e+00f  1
  21  4.4081323e+00 1.12e-04 3.86e-02  -2.5 1.39e-02    -  1.00e+00 1.00e+00h  1
  22  4.3797471e+00 0.00e+00 5.32e-02  -2.5 1.96e-02    -  1.00e+00 1.00e+00f  1
  23  4.2551081e+00 9.07e-05 1.53e-01  -2.5 9.21e-02    -  1.00e+00 1.00e+00f  1
  24  4.2444638e+00 4.32e-03 1.80e-01  -2.5 2.58e-01    -  1.00e+00 1.00e+00f  1
  25  4.1143238e+00 2.84e-03 2.15e-01  -2.5 1.85e-01    -  1.00e+00 1.00e+00f  1
  26  4.0094481e+00 9.15e-04 1.10e-01  -2.5 1.16e-01    -  9.68e-01 1.00e+00f  1
  27  4.0176563e+00 4.12e-04 9.51e-02  -2.5 4.69e-02    -  1.00e+00 1.00e+00f  1
  28  4.0368680e+00 4.96e-05 3.88e-02  -2.5 2.87e-02    -  1.00e+00 1.00e+00h  1
  29  3.9952977e+00 4.02e-05 5.17e-02  -2.5 2.10e-02    -  1.00e+00 1.00e+00f  1
iter    objective    inf_pr   inf_du lg(mu)  ||d||  lg(rg) alpha_du alpha_pr  ls
  30  3.9806696e+00 6.45e-05 5.66e-02  -2.5 3.94e-02    -  1.00e+00 1.00e+00f  1
  31  3.9667405e+00 3.59e-04 1.63e-01  -2.5 8.11e-02    -  1.00e+00 1.00e+00f  1
  32  4.0277045e+00 9.06e-04 2.42e-01  -2.5 9.86e-02    -  1.00e+00 1.00e+00f  1
  33  3.9384783e+00 6.63e-04 7.18e-02  -2.5 8.25e-02    -  9.02e-01 1.00e+00f  1
  34  3.9217525e+00 1.31e-04 2.67e-02  -2.5 6.30e-02    -  1.00e+00 1.00e+00h  1
  35  3.3995825e+00 5.98e-03 3.10e+00  -3.8 3.48e-01    -  3.93e-01 5.84e-01f  1
  36  3.1548970e+00 2.99e-03 2.62e+00  -3.8 1.84e-01    -  5.26e-01 6.57e-01f  1
  37  3.0219058e+00 2.61e-03 7.18e-01  -3.8 3.10e-01    -  4.01e-01 2.09e-01f  1
  38  2.8084218e+00 1.85e-03 5.08e-01  -3.8 4.71e-01    -  4.64e-01 2.89e-01f  1
  39  2.6027589e+00 1.52e-03 3.47e-01  -3.8 9.88e-01    -  2.10e-01 2.23e-01f  1
iter    objective    inf_pr   inf_du lg(mu)  ||d||  lg(rg) alpha_du alpha_pr  ls
  40  2.4645741e+00 1.00e-03 7.61e-01  -3.8 2.05e+00    -  2.74e-01 1.34e-01f  1
  41  2.3450905e+00 8.74e-04 1.17e+00  -3.8 3.06e+00    -  2.92e-01 9.98e-02f  1
  42  2.1014080e+00 5.73e-05 1.41e+00  -3.8 1.19e+00    -  4.51e-01 2.62e-01f  1
  43  1.9050033e+00 0.00e+00 1.95e+00  -3.8 1.07e+00    -  5.65e-01 2.71e-01f  1
  44  1.7156777e+00 2.70e-03 7.35e-01  -3.8 1.10e+00    -  6.16e-02 3.32e-01f  1
  45  1.5951373e+00 1.85e-03 1.56e+00  -3.8 1.66e+00    -  7.34e-01 2.86e-01f  1
  46  1.5541497e+00 2.13e-03 1.53e+00  -3.8 1.53e+00    -  1.45e-01 7.76e-02f  1
  47  1.4241702e+00 3.21e-03 4.42e-01  -3.8 6.64e-01    -  2.67e-01 4.17e-01f  1
  48  1.3621639e+00 3.92e-03 6.58e-01  -3.8 9.47e-01    -  2.51e-01 1.79e-01f  1
  49  1.3251208e+00 3.90e-03 1.82e+00  -3.8 7.04e-01    -  5.18e-01 1.74e-01f  1
iter    objective    inf_pr   inf_du lg(mu)  ||d||  lg(rg) alpha_du alpha_pr  ls
  50  1.2593012e+00 5.03e-03 9.20e-01  -3.8 6.89e-01    -  2.18e-01 3.44e-01f  1
  51  1.1962857e+00 8.07e-03 4.57e-01  -3.8 9.26e-01    -  3.83e-01 4.18e-01f  1
  52  1.1722339e+00 9.61e-03 2.92e-01  -3.8 3.95e-01    -  4.57e-01 4.06e-01f  1
  53  1.1801728e+00 4.64e-03 2.39e-01  -3.8 1.08e-01    -  6.41e-01 1.00e+00h  1
  54  1.1853994e+00 2.03e-03 1.00e-02  -3.8 6.45e-02    -  1.00e+00 1.00e+00h  1
  55  1.1791123e+00 2.75e-04 6.95e-03  -3.8 4.89e-02    -  1.00e+00 1.00e+00h  1
  56  1.1579172e+00 7.70e-03 7.56e-02  -3.8 1.97e-01    -  7.33e-01 1.00e+00f  1
  57  1.1383079e+00 9.98e-03 5.95e-02  -3.8 1.31e-01    -  4.15e-01 1.00e+00h  1
  58  1.1482353e+00 1.39e-02 1.44e-01  -3.8 9.85e-02    -  7.13e-01 9.49e-01h  1
  59  1.1338900e+00 6.89e-03 5.27e-02  -3.8 7.00e-02    -  6.55e-01 1.00e+00f  1
iter    objective    inf_pr   inf_du lg(mu)  ||d||  lg(rg) alpha_du alpha_pr  ls
  60  1.1395916e+00 4.11e-04 5.33e-03  -3.8 2.12e-02    -  1.00e+00 1.00e+00h  1
  61  1.1348748e+00 1.26e-04 4.29e-03  -3.8 4.46e-02    -  1.00e+00 1.00e+00h  1
  62  1.1233007e+00 3.06e-03 5.48e-02  -3.8 3.80e-01    -  1.00e+00 8.22e-01f  1
  63  1.0963260e+00 5.22e-03 6.77e-02  -3.8 2.35e-01    -  6.21e-01 1.00e+00f  1
  64  1.1097142e+00 1.32e-05 2.28e-02  -3.8 1.79e-01    -  1.00e+00 1.00e+00H  1
  65  1.0966990e+00 3.14e-03 4.76e-03  -3.8 5.27e-02    -  1.00e+00 1.00e+00f  1
  66  1.0915520e+00 2.87e-05 3.62e-03  -3.8 6.77e-02    -  1.00e+00 1.00e+00h  1
  67  1.0731065e+00 4.81e-03 4.09e-02  -3.8 5.58e-01    -  5.02e-01 7.42e-01f  1
  68  1.0641466e+00 1.11e-02 3.05e-02  -3.8 2.35e-01    -  1.00e+00 1.00e+00f  1
  69  1.0637629e+00 5.56e-03 3.18e-01  -3.8 2.27e-01    -  3.79e-01 1.00e+00h  1
iter    objective    inf_pr   inf_du lg(mu)  ||d||  lg(rg) alpha_du alpha_pr  ls
  70  1.0590272e+00 4.20e-03 1.65e-02  -3.8 1.24e-01    -  1.00e+00 1.00e+00h  1
  71  1.0581084e+00 2.78e-03 5.16e-03  -3.8 7.22e-02    -  1.00e+00 1.00e+00h  1
  72  1.0610202e+00 6.27e-04 7.69e-03  -3.8 5.05e-02    -  1.00e+00 1.00e+00h  1
  73  1.0556729e+00 1.86e-04 2.22e-03  -3.8 5.77e-02    -  1.00e+00 1.00e+00h  1
  74  1.0458353e+00 1.96e-03 7.02e-03  -3.8 2.20e-01    -  1.00e+00 1.00e+00h  1
  75  1.0415831e+00 1.52e-03 7.48e-03  -3.8 1.51e-01    -  1.00e+00 1.00e+00h  1
  76  1.0395499e+00 2.15e-03 9.04e-03  -3.8 1.03e-01    -  1.00e+00 1.00e+00h  1
  77  1.0385002e+00 1.08e-03 4.12e-03  -3.8 3.48e-02    -  1.00e+00 1.00e+00h  1
  78  1.0376936e+00 1.70e-04 1.80e-03  -3.8 5.13e-02    -  1.00e+00 1.00e+00h  1
  79  1.0347722e+00 2.64e-04 4.20e-03  -3.8 8.15e-02    -  1.00e+00 1.00e+00h  1
iter    objective    inf_pr   inf_du lg(mu)  ||d||  lg(rg) alpha_du alpha_pr  ls
  80  1.0328076e+00 4.19e-04 4.44e-03  -3.8 1.98e-01    -  1.00e+00 1.00e+00h  1
  81  1.0317887e+00 2.97e-03 1.55e-02  -3.8 3.33e-01    -  1.00e+00 9.50e-01h  1
  82  1.0284890e+00 2.90e-03 4.34e-03  -3.8 1.67e-01    -  1.00e+00 1.00e+00f  1
  83  1.0277621e+00 7.94e-04 3.14e-03  -3.8 6.81e-02    -  1.00e+00 1.00e+00h  1
  84  1.0259464e+00 4.56e-04 5.46e-03  -3.8 6.25e-02    -  1.00e+00 1.00e+00h  1
  85  1.0277870e+00 2.27e-04 2.19e-03  -3.8 4.97e-02    -  1.00e+00 1.00e+00h  1
  86  1.0272121e+00 3.01e-04 4.21e-03  -3.8 7.28e-02    -  1.00e+00 1.00e+00h  1
  87  1.0263650e+00 1.92e-04 6.69e-03  -3.8 1.02e-01    -  1.00e+00 1.00e+00h  1
  88  1.0221092e+00 2.78e-03 1.55e-02  -3.8 2.32e-01    -  1.00e+00 1.00e+00h  1
  89  1.0221545e+00 2.48e-03 3.79e-03  -3.8 8.11e-02    -  1.00e+00 1.00e+00h  1
iter    objective    inf_pr   inf_du lg(mu)  ||d||  lg(rg) alpha_du alpha_pr  ls
  90  1.0230475e+00 1.43e-04 1.51e-03  -3.8 5.21e-02    -  1.00e+00 1.00e+00h  1
  91  1.0230993e+00 3.46e-05 1.94e-03  -3.8 7.05e-02    -  1.00e+00 1.00e+00h  1
  92  1.0211426e+00 2.05e-05 3.13e-03  -3.8 2.18e-01    -  1.00e+00 1.00e+00h  1
  93  1.0210790e+00 1.67e-03 7.54e-03  -3.8 4.19e-01    -  1.00e+00 1.00e+00h  1
  94  1.0172173e+00 1.71e-03 5.36e-03  -3.8 1.42e-01    -  1.00e+00 1.00e+00h  1
  95  1.0140232e+00 1.45e-03 9.58e-03  -3.8 1.33e-01    -  1.00e+00 1.00e+00h  1
  96  1.0172537e+00 5.97e-04 3.20e-03  -3.8 1.19e-01    -  1.00e+00 1.00e+00h  1
  97  1.0175293e+00 3.52e-04 4.37e-03  -3.8 9.70e-02    -  1.00e+00 1.00e+00h  1
  98  1.0163391e+00 2.14e-04 2.88e-03  -3.8 4.16e-02    -  1.00e+00 1.00e+00h  1
  99  1.0147269e+00 4.44e-04 3.81e-03  -3.8 4.89e-02    -  1.00e+00 1.00e+00h  1
iter    objective    inf_pr   inf_du lg(mu)  ||d||  lg(rg) alpha_du alpha_pr  ls
 100  1.0139572e+00 8.58e-05 1.21e-03  -3.8 3.02e-02    -  1.00e+00 1.00e+00h  1
 101  9.3714157e-01 9.00e-04 2.43e-02  -5.7 2.46e-01    -  4.49e-01 4.61e-01f  1
 102  9.1052930e-01 7.88e-04 6.80e-01  -5.7 3.85e-01    -  4.37e-01 1.54e-01f  1
 103  8.6532132e-01 7.69e-04 7.20e-01  -5.7 8.32e-01    -  2.82e-01 1.70e-01f  1
 104  8.3208683e-01 9.14e-04 7.49e-01  -5.7 1.29e+00    -  2.97e-01 1.15e-01f  1
 105  8.2599720e-01 9.15e-04 7.87e-01  -5.7 1.62e+00    -  2.65e-01 2.14e-02f  1
 106  7.9665454e-01 2.03e-03 8.37e-01  -5.7 1.92e+00    -  2.90e-01 1.10e-01f  1
 107  7.6653590e-01 2.56e-03 7.70e-01  -5.7 1.36e+00    -  2.64e-01 1.57e-01f  1
 108  7.4550939e-01 2.46e-03 7.08e-01  -5.7 1.35e+00    -  2.01e-01 1.30e-01f  1
 109  7.3461202e-01 2.43e-03 7.22e-01  -5.7 1.21e+00    -  2.24e-01 7.68e-02h  1
iter    objective    inf_pr   inf_du lg(mu)  ||d||  lg(rg) alpha_du alpha_pr  ls
 110  7.1092469e-01 3.16e-03 6.31e-01  -5.7 1.27e+00    -  3.20e-01 1.91e-01f  1
 111  7.0413543e-01 3.09e-03 6.26e-01  -5.7 9.13e-01    -  2.65e-01 7.06e-02h  1
 112  6.9466581e-01 2.78e-03 6.14e-01  -5.7 7.42e-01    -  2.57e-01 1.18e-01h  1
 113  6.8066115e-01 2.93e-03 5.17e-01  -5.7 1.40e+00    -  2.04e-01 1.55e-01h  1
 114  6.7665562e-01 2.86e-03 4.97e-01  -5.7 1.37e+00    -  1.30e-01 5.33e-02f  1
 115  6.7315310e-01 2.80e-03 4.81e-01  -5.7 1.41e+00    -  1.51e-01 5.07e-02h  1
 116  6.6585634e-01 2.60e-03 4.04e-01  -5.7 1.59e+00    -  2.24e-01 1.08e-01f  1
 117  6.6205895e-01 2.58e-03 3.82e-01  -5.7 2.59e+00    -  4.77e-02 5.63e-02h  1
 118  6.5960720e-01 2.51e-03 3.68e-01  -5.7 3.06e+00    -  1.21e-01 3.75e-02h  1
 119  6.5549881e-01 2.47e-03 3.50e-01  -5.7 6.38e+00    -  4.79e-02 4.82e-02f  1
iter    objective    inf_pr   inf_du lg(mu)  ||d||  lg(rg) alpha_du alpha_pr  ls
 120  6.5300329e-01 2.93e-03 3.40e-01  -5.7 6.39e+00    -  6.30e-02 2.46e-02f  1
 121  6.4632025e-01 2.47e-03 3.72e-01  -5.7 7.42e-01    -  5.39e-01 1.82e-01f  1
 122  6.4343653e-01 2.47e-03 3.04e-01  -5.7 3.25e+00    -  2.08e-01 5.41e-02f  1
 123  6.3997324e-01 2.44e-03 2.98e-01  -5.7 2.82e+00    -  3.18e-01 7.64e-02h  1
 124  6.3279709e-01 3.99e-03 2.30e-01  -5.7 6.72e-01    -  1.63e-01 2.21e-01h  1
 125  6.2984857e-01 3.44e-03 2.43e-01  -5.7 2.51e-01    -  3.81e-01 1.53e-01h  1
 126  6.2820241e-01 3.26e-03 2.29e-01  -5.7 3.13e-01    -  9.56e-02 6.69e-02f  1
 127  6.2453956e-01 2.72e-03 2.41e-01  -5.7 3.21e-01    -  4.16e-01 2.00e-01f  1
 128  6.2042292e-01 2.72e-03 1.96e-01  -5.7 4.13e-01    -  1.43e-01 2.08e-01f  1
 129  6.1731472e-01 2.34e-03 1.46e-01  -5.7 3.79e-01    -  3.88e-01 2.22e-01f  1
iter    objective    inf_pr   inf_du lg(mu)  ||d||  lg(rg) alpha_du alpha_pr  ls
 130  6.1578926e-01 2.16e-03 8.82e-02  -5.7 3.96e-01    -  2.88e-01 1.16e-01f  1
 131  6.1398364e-01 2.03e-03 9.30e-02  -5.7 5.82e-01    -  2.87e-01 1.42e-01f  1
 132  6.1255224e-01 1.90e-03 3.06e-02  -5.7 1.09e+00    -  3.08e-01 8.95e-02f  1
 133  6.1071242e-01 1.90e-03 2.31e-02  -5.7 2.68e+00    -  1.16e-01 7.22e-02f  1
 134  6.0929371e-01 1.90e-03 2.26e-02  -5.7 4.10e+00    -  6.62e-02 4.20e-02f  1
 135  6.0813717e-01 1.94e-03 2.94e-02  -5.7 4.25e+00    -  1.26e-01 3.35e-02f  1
 136  6.0723920e-01 1.86e-03 4.04e-02  -5.7 1.74e+00    -  2.64e-01 5.69e-02f  1
 137  6.0546608e-01 1.99e-03 3.84e-02  -5.7 2.82e+00    -  1.68e-01 7.44e-02h  1
 138  6.0460186e-01 2.17e-03 3.11e-02  -5.7 1.20e+00    -  9.25e-02 5.44e-02h  1
 139  6.0370799e-01 1.81e-03 7.71e-02  -5.7 3.54e-01    -  5.12e-01 1.78e-01f  1
iter    objective    inf_pr   inf_du lg(mu)  ||d||  lg(rg) alpha_du alpha_pr  ls
 140  6.0247657e-01 1.83e-03 7.09e-02  -5.7 1.64e+00    -  1.13e-01 5.68e-02h  1
 141  6.0150266e-01 1.78e-03 7.10e-02  -5.7 1.04e+00    -  2.95e-01 7.53e-02h  1
 142  6.0033774e-01 1.71e-03 5.93e-02  -5.7 1.05e+00    -  1.43e-01 1.04e-01h  1
 143  5.9931061e-01 1.65e-03 5.58e-02  -5.7 1.10e+00    -  7.02e-02 1.01e-01f  1
 144  5.9857814e-01 1.59e-03 4.55e-02  -5.7 1.14e+00    -  1.24e-01 9.29e-02f  1
 145  5.9792600e-01 1.52e-03 4.40e-02  -5.7 1.11e+00    -  1.24e-01 9.41e-02f  1
 146  5.9719693e-01 1.48e-03 3.40e-02  -5.7 1.81e+00    -  1.15e-01 7.12e-02f  1
 147  5.9659322e-01 1.47e-03 3.25e-02  -5.7 2.56e+00    -  3.49e-02 3.99e-02f  1
 148  5.9576826e-01 1.49e-03 2.96e-02  -5.7 4.42e+00    -  4.59e-02 3.42e-02f  1
 149  5.9473446e-01 1.55e-03 2.87e-02  -5.7 5.75e+00    -  3.19e-02 3.16e-02f  1
iter    objective    inf_pr   inf_du lg(mu)  ||d||  lg(rg) alpha_du alpha_pr  ls
 150  5.9433612e-01 1.54e-03 1.75e-02  -5.7 4.55e+00    -  1.50e-01 1.70e-02f  1
 151  5.9298019e-01 1.78e-03 1.95e-02  -5.7 6.13e+00    -  5.62e-02 3.92e-02f  1
 152  5.9228272e-01 1.82e-03 7.01e-03  -5.7 2.13e+00    -  1.49e-01 5.43e-02f  1
 153  5.9154497e-01 1.70e-03 6.50e-02  -5.7 1.52e+00    -  3.23e-01 9.24e-02f  1
 154  5.9073863e-01 1.75e-03 4.36e-02  -5.7 1.81e+00    -  1.84e-01 9.29e-02h  1
 155  5.9031851e-01 1.61e-03 3.82e-02  -5.7 8.22e-01    -  7.36e-02 1.08e-01f  1
 156  5.8999553e-01 1.56e-03 1.09e-02  -5.7 9.39e-01    -  1.42e-01 5.49e-02f  1
 157  5.8975639e-01 1.42e-03 7.66e-03  -5.7 4.67e-01    -  2.36e-01 1.00e-01f  1
 158  5.8853079e-01 1.71e-03 5.17e-02  -5.7 9.79e-01    -  5.99e-02 2.86e-01f  1
 159  5.8846913e-01 1.67e-03 1.53e-02  -5.7 4.42e-01    -  1.58e-01 2.54e-02f  1
iter    objective    inf_pr   inf_du lg(mu)  ||d||  lg(rg) alpha_du alpha_pr  ls
 160  5.8776295e-01 1.53e-03 1.06e-02  -5.7 5.74e-01    -  2.37e-01 2.09e-01f  1
 161  5.8734610e-01 1.41e-03 8.40e-03  -5.7 5.61e-01    -  1.92e-01 1.40e-01f  1
 162  5.8670311e-01 1.38e-03 3.12e-02  -5.7 8.04e-01    -  9.54e-02 1.57e-01f  1
 163  5.8638011e-01 1.31e-03 2.80e-02  -5.7 8.67e-01    -  2.07e-01 9.36e-02f  1
 164  5.8586138e-01 1.30e-03 1.02e-02  -5.7 1.41e+00    -  1.75e-01 8.43e-02f  1
 165  5.8536111e-01 1.27e-03 4.90e-03  -5.7 1.42e+00    -  7.75e-02 1.12e-01f  1
 166  5.8510317e-01 1.25e-03 6.63e-03  -5.7 3.22e+00    -  1.25e-01 2.17e-02f  1
 167  5.8441063e-01 1.28e-03 1.52e-02  -5.7 3.61e+00    -  1.12e-01 5.72e-02f  1
 168  5.8373233e-01 1.57e-03 1.64e-02  -5.7 1.84e+00    -  1.48e-01 1.22e-01f  1
 169  5.8349298e-01 1.50e-03 1.62e-01  -5.7 4.88e-01    -  6.92e-01 1.37e-01f  1
iter    objective    inf_pr   inf_du lg(mu)  ||d||  lg(rg) alpha_du alpha_pr  ls
 170  5.8354917e-01 9.48e-04 5.41e-02  -5.7 1.10e-01    -  6.82e-01 5.66e-01h  1
 171  5.8393022e-01 4.63e-04 4.06e-02  -5.7 1.18e-01    -  4.04e-01 7.93e-01h  1
 172  5.8384555e-01 3.09e-04 4.22e-02  -5.7 1.39e-01    -  7.09e-01 4.23e-01f  2
 173  5.8338132e-01 3.88e-04 3.41e-02  -5.7 8.84e-01    -  1.82e-01 2.19e-01h  1
 174  5.8292242e-01 4.26e-04 2.30e-02  -5.7 5.55e-01    -  2.32e-01 2.96e-01f  1
 175  5.8286557e-01 4.14e-04 1.08e-01  -5.7 5.21e-01    -  4.97e-01 3.31e-02f  1
 176  5.8221922e-01 4.43e-04 7.95e-02  -5.7 9.93e-01    -  1.25e-01 2.35e-01f  1
 177  5.8209645e-01 4.41e-04 8.31e-02  -5.7 2.41e+00    -  1.24e-01 2.03e-02f  1
 178  5.8189611e-01 4.33e-04 8.20e-02  -5.7 2.02e+00    -  1.58e-01 4.73e-02f  1
 179  5.8119504e-01 6.91e-04 7.20e-02  -5.7 3.21e+00    -  1.15e-01 1.10e-01f  1
iter    objective    inf_pr   inf_du lg(mu)  ||d||  lg(rg) alpha_du alpha_pr  ls
 180  5.8095590e-01 7.02e-04 7.51e-02  -5.7 1.73e+00    -  1.43e-01 5.29e-02f  1
 181  5.8073313e-01 6.57e-04 6.55e-02  -5.7 7.37e-01    -  3.63e-01 1.03e-01f  1
 182  5.8014304e-01 9.06e-04 5.49e-02  -5.7 1.29e+00    -  2.66e-01 1.44e-01f  1
 183  5.7985414e-01 8.96e-04 6.77e-02  -5.7 8.69e-01    -  2.44e-01 9.53e-02f  1
 184  5.7954517e-01 7.88e-04 3.00e-02  -5.7 4.82e-01    -  5.65e-01 3.90e-01f  1
 185  5.7918459e-01 7.96e-04 1.30e-02  -5.7 8.34e-01    -  3.83e-01 2.13e-01f  1
 186  5.7905868e-01 7.61e-04 3.35e-02  -5.7 9.17e-01    -  4.64e-01 7.77e-02f  1
 187  5.7896497e-01 7.05e-04 5.50e-02  -5.7 3.55e-01    -  4.20e-01 1.30e-01f  1
 188  5.7887407e-01 5.12e-04 2.97e-02  -5.7 3.63e-01    -  3.94e-01 4.47e-01f  1
 189  5.7850144e-01 5.27e-04 2.59e-02  -5.7 9.27e-01    -  2.96e-01 2.39e-01f  1
iter    objective    inf_pr   inf_du lg(mu)  ||d||  lg(rg) alpha_du alpha_pr  ls
 190  5.7841306e-01 5.23e-04 1.69e-02  -5.7 1.11e+00    -  3.31e-01 3.60e-02f  1
 191  5.7831989e-01 3.41e-04 8.39e-03  -5.7 3.08e-01    -  9.64e-01 6.14e-01f  1
 192  5.7816623e-01 3.34e-04 1.10e-02  -5.7 4.68e-01    -  3.08e-01 1.56e-01f  1
 193  5.7783783e-01 4.76e-04 1.50e-02  -5.7 8.21e-01    -  2.38e-01 1.28e-01f  1
 194  5.7767218e-01 3.75e-04 5.78e-03  -5.7 2.75e-01    -  5.15e-01 3.56e-01f  1
 195  5.7749674e-01 3.72e-04 2.73e-02  -5.7 8.85e-01    -  2.61e-01 8.22e-02f  1
 196  5.7724446e-01 3.95e-04 2.00e-02  -5.7 1.20e+00    -  1.93e-01 9.44e-02f  1
 197  5.7686950e-01 1.24e-03 1.05e-02  -5.7 8.00e-01    -  3.34e-01 2.79e-01f  1
 198  5.7677293e-01 7.99e-04 2.58e-02  -5.7 4.09e-02    -  7.47e-01 4.69e-01f  1
 199  5.7696714e-01 4.09e-04 1.94e-03  -5.7 6.66e-02    -  1.00e+00 1.00e+00h  1
iter    objective    inf_pr   inf_du lg(mu)  ||d||  lg(rg) alpha_du alpha_pr  ls
 200  5.7689625e-01 3.63e-04 1.22e-01  -5.7 2.99e-02    -  1.00e+00 4.74e-01h  1

Number of Iterations....: 200

                                   (scaled)                 (unscaled)
Objective...............:   5.7689625383892795e-01    5.7689625383892795e-01
Dual infeasibility......:   1.2151792596840938e-01    1.2151792596840938e-01
Constraint violation....:   3.6336181696027865e-04    3.6336181696027865e-04
Complementarity.........:   4.7788749598244684e-06    4.7788749598244684e-06
Overall NLP error.......:   1.2151792596840938e-01    1.2151792596840938e-01


Number of objective function evaluations             = 203
Number of objective gradient evaluations             = 201
Number of equality constraint evaluations            = 0
Number of inequality constraint evaluations          = 203
Number of equality constraint Jacobian evaluations   = 0
Number of inequality constraint Jacobian evaluations = 201
Number of Lagrangian Hessian evaluations             = 0
Total CPU secs in IPOPT (w/o function evaluations)   =     38.292
Total CPU secs in NLP function evaluations           =    442.618

EXIT: Maximum Number of Iterations Exceeded.
